param set_len = 30;
param target_sum = 66784453;
param values := [0] 4688611 [1] 2531674 [2] 5946219 [3] 171573 [4] 5062111 [5] 3927064 [6] 5171703 [7] 7895949 [8] 7819809 [9] 3250852 [10] 5281955 [11] 6939244 [12] 8257612 [13] 2260443 [14] 144776 [15] 981077 [16] 7553951 [17] 126294 [18] 4173198 [19] 1797918 [20] 3109922 [21] 2298074 [22] 7275120 [23] 4037273 [24] 7071465 [25] 2263803 [26] 7510749 [27] 377316 [28] 4233265 [29] 6399177 ;
